c
c start with comments
c
p cnf 57 40
46 -30 5 -26 24 -36 0
21 42 -3 0
-43 -21 -34 22 -44 0
40 -52 0
-21 36 42 13 0
25 -32 0
58 60 13 0
-12 29 -36 0
48 -20 27 -36 0
-31 -23 0
62 20 0
36 14 -45 42 3 58 0
-44 3 -12 58 0
59 2 0
-12 -54 18 0
60 61 -21 63 0
32 35 55 42 42 0
28 -39 28 0
-28 7 0
-27 33 -24 0
63 -57 -24 0
45 3 61 35 0
-6 39 0
-9 1 0
12 10 0
-17 61 -43 0
8 -53 0
-20 -49 37 46 0
56 -29 53 -25 0
4 29 -18 0
9 -22 0
33 29 54 56 0
-30 -34 -12 11 0
17 41 0
37 -14 -8 0
55 -56 45 0
-35 -41 0
23 -37 0
18 52 14 43 0
47 54 -57 0